sat
(model
(define-fun |main$tmp_guard0#3| () (_ BitVec 8) #b00000001)
(define-fun |goto_symex::&92;guard#1| () Bool true)
(define-fun |goto_symex::&92;guard#2| () Bool true)
(define-fun |goto_symex::&92;guard#3| () Bool true)
(define-fun |goto_symex::&92;guard#4| () Bool false)
(define-fun array_of.0 () (Array (_ BitVec 32) (_ BitVec 1)) ((as const (Array (_ BitVec 32) (_ BitVec 1))) #b0))
(define-fun |main::1::t2686!0@1| () (_ BitVec 32) #b00000000000000000000000000000000)
(define-fun |main::1::t2687!0@1| () (_ BitVec 32) #b00000000000000000000000000000000)
(define-fun |__CPROVER_next_thread_id#3| () (_ BitVec 32) #b00000000000000000000000000000001)
(define-fun |main::1::t2688!0@1| () (_ BitVec 32) #b00000000000000000000000000000000)
(define-fun |__CPROVER_next_thread_id#6| () (_ BitVec 32) #b00000000000000000000000000000010)
(define-fun |__unbuffered_cnt#2| () (_ BitVec 32) #b00000000000000000000000000000011)
(define-fun |y$w_buff0_used#2| () (_ BitVec 8) #b00000000)
(define-fun |y$r_buff0_thd0#2| () (_ BitVec 8) #b00000000)
(define-fun |y$w_buff0#2| () (_ BitVec 32) #b00000000000000000000000000000001)
(define-fun |y$w_buff1_used#2| () (_ BitVec 8) #b00000000)
(define-fun |y$r_buff1_thd0#2| () (_ BitVec 8) #b00000000)
(define-fun |y$w_buff1#2| () (_ BitVec 32) #b00000000000000000000000000000000)
(define-fun |y#2| () (_ BitVec 32) #b00000000000000000000000000000001)
(define-fun |y#4| () (_ BitVec 32) #b00000000000000000000000000000001)
(define-fun |y$w_buff0_used#6| () (_ BitVec 8) #b00000000)
(define-fun |y$w_buff1_used#6| () (_ BitVec 8) #b00000000)
(define-fun |y$r_buff0_thd0#8| () (_ BitVec 8) #b00000000)
(define-fun |y$r_buff1_thd0#7| () (_ BitVec 8) #b00000000)
(define-fun |nondet_symex::nondet0| () (_ BitVec 32) #b00000000000000000000000000000001)
(define-fun |weak$$choice1#2| () (_ BitVec 8) #b00000001)
(define-fun |weak$$choice1#3| () (_ BitVec 8) #b00000000)
(define-fun |__unbuffered_p2_EAX$read_delayed#2| () (_ BitVec 8) #b00000001)
(define-fun |__unbuffered_p2_EAX$read_delayed_var$object#1| () (_ BitVec 32) #b00000000000000000000000000000001)
(define-fun |__unbuffered_p2_EAX$read_delayed_var$object#0| () (_ BitVec 32) #b00000000000000000000000000000000)
(define-fun |main::$tmp::::tmp_if_expr$1!0@1#1| () (_ BitVec 32) #b00000000000000000000000000000000)
(define-fun |__unbuffered_p2_EAX#2| () (_ BitVec 32) #b00000000000000000000000000000000)
(define-fun |main::$tmp::::tmp_if_expr$2!0@1#1| () (_ BitVec 32) #b00000000000000000000000000000000)
(define-fun |main::$tmp::::tmp_if_expr$1!0@1#0| () (_ BitVec 32) #b00000000000000000000000000000000)
(define-fun |__unbuffered_p2_EAX#8| () (_ BitVec 32) #b00000000000000000000000000000001)
(define-fun |__unbuffered_p0_EAX#2| () (_ BitVec 32) #b00000000000000000000000000000001)
(define-fun |__unbuffered_p1_EAX#2| () (_ BitVec 32) #b00000000000000000000000000000001)
(define-fun |main$tmp_guard1#2| () (_ BitVec 8) #b00000000)
(define-fun |main$tmp_guard1#3| () (_ BitVec 8) #b00000000)
(define-fun |main$tmp_guard1#6| () (_ BitVec 8) #b00000000)
(define-fun |pthread_create::1::this_thread_id!1@0#0| () (_ BitVec 32) #b00000000000000000000000000000000)
(define-fun |z#2| () (_ BitVec 32) #b00000000000000000000000000000001)
(define-fun |__unbuffered_cnt#4| () (_ BitVec 32) #b00000000000000000000000000000001)
(define-fun |nondet_symex::nondet1| () (_ BitVec 32) #b00000000000000000000000000000000)
(define-fun |__CPROVER_threads_exited#2| () (Array (_ BitVec 32) (_ BitVec 1)) (store ((as const (Array (_ BitVec 32) (_ BitVec 1))) #b0) #b00000000000000000000000000000000 #b1))
(define-fun |pthread_create::1::this_thread_id!2@0#0| () (_ BitVec 32) #b00000000000000000000000000000000)
(define-fun |x#3| () (_ BitVec 32) #b00000000000000000000000000000001)
(define-fun |y$w_buff0#4| () (_ BitVec 32) #b00000000000000000000000000000000)
(define-fun |y$w_buff0_used#11| () (_ BitVec 8) #b00000000)
(define-fun |y$r_buff0_thd0#11| () (_ BitVec 8) #b00000000)
(define-fun |y$r_buff1_thd0#9| () (_ BitVec 8) #b00000000)
(define-fun |y$r_buff1_thd0#10| () (_ BitVec 8) #b00000000)
(define-fun |y$r_buff0_thd1#2| () (_ BitVec 8) #b00000000)
(define-fun |y$r_buff1_thd1#2| () (_ BitVec 8) #b00000000)
(define-fun |y$r_buff1_thd1#3| () (_ BitVec 8) #b00000000)
(define-fun |y$r_buff0_thd2#2| () (_ BitVec 8) #b00000000)
(define-fun |y$r_buff1_thd2#2| () (_ BitVec 8) #b00000000)
(define-fun |y$r_buff1_thd2#3| () (_ BitVec 8) #b00000000)
(define-fun |y$r_buff0_thd3#2| () (_ BitVec 8) #b00000000)
(define-fun |y$r_buff1_thd3#2| () (_ BitVec 8) #b00000000)
(define-fun |y$r_buff1_thd3#3| () (_ BitVec 8) #b00000000)
(define-fun |y$r_buff0_thd2#4| () (_ BitVec 8) #b00000001)
(define-fun |y$w_buff0_used#14| () (_ BitVec 8) #b00000001)
(define-fun |y$r_buff0_thd2#6| () (_ BitVec 8) #b00000001)
(define-fun |y$w_buff0#7| () (_ BitVec 32) #b00000000000000000000000000000001)
(define-fun |y$w_buff1_used#10| () (_ BitVec 8) #b00000000)
(define-fun |y$r_buff1_thd2#5| () (_ BitVec 8) #b00000000)
(define-fun |y$w_buff1#5| () (_ BitVec 32) #b00000000000000000000000000000000)
(define-fun |y#6| () (_ BitVec 32) #b00000000000000000000000000000000)
(define-fun |y#8| () (_ BitVec 32) #b00000000000000000000000000000001)
(define-fun |y$w_buff0_used#18| () (_ BitVec 8) #b00000000)
(define-fun |y$w_buff1_used#14| () (_ BitVec 8) #b00000000)
(define-fun |y$r_buff0_thd2#12| () (_ BitVec 8) #b00000001)
(define-fun |y$r_buff1_thd2#10| () (_ BitVec 8) #b00000000)
(define-fun |__unbuffered_cnt#7| () (_ BitVec 32) #b00000000000000000000000000000000)
(define-fun |__unbuffered_cnt#9| () (_ BitVec 32) #b00000000000000000000000000000001)
(define-fun |nondet_symex::nondet2| () (_ BitVec 32) #b00000000000000000000000000000000)
(define-fun |__CPROVER_threads_exited#4| () (Array (_ BitVec 32) (_ BitVec 1)) (store ((as const (Array (_ BitVec 32) (_ BitVec 1))) #b0) #b00000000000000000000000000000000 #b1))
(define-fun |pthread_create::1::this_thread_id!3@0#0| () (_ BitVec 32) #b00000000000000000000000000000000)
(define-fun |nondet_symex::nondet3| () (_ BitVec 32) #b00000000000000000000000000000000)
(define-fun |nondet_symex::nondet4| () (_ BitVec 32) #b00000000000000000000000000000000)
(define-fun |y#10| () (_ BitVec 32) #b00000000000000000000000000000000)
(define-fun |nondet_symex::nondet5| () (_ BitVec 32) #b00000000000000000000000000000000)
(define-fun |y$w_buff0_used#23| () (_ BitVec 8) #b00000000)
(define-fun |y$r_buff0_thd3#4| () (_ BitVec 8) #b00000000)
(define-fun |y$w_buff0#9| () (_ BitVec 32) #b00000000000000000000000000000000)
(define-fun |y$r_buff1_thd3#5| () (_ BitVec 8) #b00000000)
(define-fun |y$w_buff1_used#17| () (_ BitVec 8) #b00000000)
(define-fun |y$w_buff1#7| () (_ BitVec 32) #b00000000000000000000000000000000)
(define-fun y () (_ BitVec 32) #b00000000000000000000000000000000)
(define-fun |y$w_buff0_used#26| () (_ BitVec 8) #b00000000)
(define-fun |y$r_buff0_thd3#7| () (_ BitVec 8) #b00000000)
(define-fun |y$w_buff0#12| () (_ BitVec 32) #b00000000000000000000000000000001)
(define-fun |y$w_buff1_used#20| () (_ BitVec 8) #b00000000)
(define-fun |y$r_buff1_thd3#8| () (_ BitVec 8) #b00000000)
(define-fun |y$w_buff1#10| () (_ BitVec 32) #b00000000000000000000000000000000)
(define-fun |y#14| () (_ BitVec 32) #b00000000000000000000000000000001)
(define-fun |__unbuffered_cnt#11| () (_ BitVec 32) #b00000000000000000000000000000010)
(define-fun |nondet_symex::nondet6| () (_ BitVec 32) #b00000000000000000000000000000000)
(define-fun |__CPROVER_threads_exited#6| () (Array (_ BitVec 32) (_ BitVec 1)) ((as const (Array (_ BitVec 32) (_ BitVec 1))) #b0))
(define-fun |main::1::t2686!0@1#1| () (_ BitVec 32) #b00000000000000000000000000000000)
(define-fun |pthread_create::1::this_thread_id!0@1#1| () (_ BitVec 32) #b00000000000000000000000000000000)
(define-fun |main::1::t2687!0@1#1| () (_ BitVec 32) #b00000000000000000000000000000000)
(define-fun |pthread_create::1::this_thread_id!0@2#1| () (_ BitVec 32) #b00000000000000000000000000000000)
(define-fun |main::1::t2688!0@1#1| () (_ BitVec 32) #b00000000000000000000000000000000)
(define-fun |pthread_create::1::this_thread_id!0@3#1| () (_ BitVec 32) #b00000000000000000000000000000000)
(define-fun |main::$tmp::return_value___VERIFIER_nondet_pointer$1!0@1#1| () (_ BitVec 32) #b00000000000000000000000000000000)
(define-fun |P0::$tmp::return_value___VERIFIER_nondet_pointer$1!1@1#1| () (_ BitVec 32) #b00000000000000000000000000000000)
(define-fun |P1::$tmp::return_value___VERIFIER_nondet_pointer$1!2@1#1| () (_ BitVec 32) #b00000000000000000000000000000000)
(define-fun |P2::$tmp::return_value___VERIFIER_nondet_pointer$1!3@1#1| () (_ BitVec 32) #b00000000000000000000000000000000)
(define-fun |P2::$tmp::return_value___VERIFIER_nondet_pointer$2!3@1#1| () (_ BitVec 32) #b00000000000000000000000000000000)
(define-fun |P2::$tmp::return_value___VERIFIER_nondet_pointer$3!3@1#1| () (_ BitVec 32) #b00000000000000000000000000000000)
(define-fun |P2::$tmp::return_value___VERIFIER_nondet_pointer$4!3@1#1| () (_ BitVec 32) #b00000000000000000000000000000000)
(define-fun |memory_model::choice_rf_1_5_0_11_T_0| () Bool false)
(define-fun |__CPROVER_threads_exited#1$wclk$8| () (_ BitVec 8) #b00100011)
(define-fun |__CPROVER_threads_exited#2$rclk$8| () (_ BitVec 8) #b11111010)
(define-fun |memory_model::choice_rf_1_5_2_36_T_1| () Bool false)
(define-fun |__CPROVER_threads_exited#5$wclk$8| () (_ BitVec 8) #b11111011)
(define-fun |memory_model::choice_rf_1_5_3_38_T_2| () Bool true)
(define-fun |__CPROVER_threads_exited#7$wclk$8| () (_ BitVec 8) #b11111001)
(define-fun |memory_model::choice_rf_2_35_0_11_T_3| () Bool false)
(define-fun |__CPROVER_threads_exited#4$rclk$8| () (_ BitVec 8) #b11111010)
(define-fun |memory_model::choice_rf_2_35_1_6_T_4| () Bool false)
(define-fun |__CPROVER_threads_exited#3$wclk$8| () (_ BitVec 8) #b11111100)
(define-fun |memory_model::choice_rf_2_35_3_38_T_5| () Bool true)
(define-fun |memory_model::choice_rf_3_37_0_11_T_6| () Bool true)
(define-fun |__CPROVER_threads_exited#6$rclk$8| () (_ BitVec 8) #b11111000)
(define-fun |memory_model::choice_rf_3_37_1_6_T_7| () Bool false)
(define-fun |memory_model::choice_rf_3_37_2_36_T_8| () Bool false)
(define-fun |memory_model::choice_rf_0_61_0_9_T_9| () Bool false)
(define-fun |memory_model::choice_rf_0_61_0_57_T_10| () Bool true)
(define-fun |memory_model::choice_rf_0_66_0_9_T_11| () Bool false)
(define-fun |memory_model::choice_rf_0_66_0_57_T_12| () Bool false)
(define-fun |memory_model::choice_rf_0_66_0_62_T_13| () Bool true)
(define-fun |memory_model::choice_rf_2_0_0_37_F_14| () Bool false)
(define-fun |x#1$wclk$8| () (_ BitVec 8) #b01001011)
(define-fun |x#3$rclk$8| () (_ BitVec 8) #b11110010)
(define-fun |memory_model::choice_rf_2_0_1_2_F_15| () Bool true)
(define-fun |x#2$wclk$8| () (_ BitVec 8) #b11110001)
(define-fun |memory_model::choice_rf_0_70_0_12_F_16| () Bool false)
(define-fun |memory_model::choice_rf_0_70_1_4_F_17| () Bool false)
(define-fun |__unbuffered_cnt#6$wclk$8| () (_ BitVec 8) #b11110110)
(define-fun |__unbuffered_cnt#2$rclk$8| () (_ BitVec 8) #b11111001)
(define-fun |memory_model::choice_rf_0_70_2_34_F_18| () Bool false)
(define-fun |__unbuffered_cnt#10$wclk$8| () (_ BitVec 8) #b11110101)
(define-fun |memory_model::choice_rf_0_70_3_36_F_19| () Bool true)
(define-fun |__unbuffered_cnt#13$wclk$8| () (_ BitVec 8) #b11110111)
(define-fun |memory_model::choice_rf_1_3_0_12_F_20| () Bool false)
(define-fun |__unbuffered_cnt#1$wclk$8| () (_ BitVec 8) #b00100100)
(define-fun |__unbuffered_cnt#4$rclk$8| () (_ BitVec 8) #b11110110)
(define-fun |memory_model::choice_rf_1_3_2_34_F_21| () Bool true)
(define-fun |memory_model::choice_rf_1_3_3_36_F_22| () Bool false)
(define-fun |memory_model::choice_rf_2_33_0_12_F_23| () Bool true)
(define-fun |__unbuffered_cnt#7$rclk$8| () (_ BitVec 8) #b11110101)
(define-fun |memory_model::choice_rf_2_33_1_4_F_24| () Bool false)
(define-fun |memory_model::choice_rf_2_33_3_36_F_25| () Bool false)
(define-fun |memory_model::choice_rf_3_35_0_12_F_26| () Bool false)
(define-fun |__unbuffered_cnt#11$rclk$8| () (_ BitVec 8) #b11110111)
(define-fun |memory_model::choice_rf_3_35_1_4_F_27| () Bool true)
(define-fun |memory_model::choice_rf_3_35_2_34_F_28| () Bool false)
(define-fun |memory_model::choice_rf_0_86_0_13_F_29| () Bool false)
(define-fun |memory_model::choice_rf_0_86_1_1_F_30| () Bool true)
(define-fun |__unbuffered_p0_EAX#4$wclk$8| () (_ BitVec 8) #b11101111)
(define-fun |__unbuffered_p0_EAX#2$rclk$8| () (_ BitVec 8) #b11111101)
(define-fun |memory_model::choice_rf_0_87_0_14_F_31| () Bool false)
(define-fun |memory_model::choice_rf_0_87_2_1_F_32| () Bool true)
(define-fun |__unbuffered_p1_EAX#4$wclk$8| () (_ BitVec 8) #b11110010)
(define-fun |__unbuffered_p1_EAX#2$rclk$8| () (_ BitVec 8) #b11111101)
(define-fun |memory_model::choice_rf_0_88_0_15_F_33| () Bool false)
(define-fun |memory_model::choice_rf_0_88_3_7_F_34| () Bool false)
(define-fun |__unbuffered_p2_EAX#11$wclk$8| () (_ BitVec 8) #b11101100)
(define-fun |__unbuffered_p2_EAX#2$rclk$8| () (_ BitVec 8) #b11111101)
(define-fun |memory_model::choice_rf_0_90_0_26_F_35| () Bool false)
(define-fun |memory_model::choice_rf_0_90_3_21_F_36| () Bool true)
(define-fun |__unbuffered_p2_EAX$read_delayed#4$wclk$8| () (_ BitVec 8) #b11101100)
(define-fun |__unbuffered_p2_EAX$read_delayed#2$rclk$8| () (_ BitVec 8) #b11111101)
(define-fun |memory_model::choice_rf_0_72_0_32_F_37| () Bool false)
(define-fun |memory_model::choice_rf_0_72_0_71_F_38| () Bool true)
(define-fun |memory_model::choice_rf_0_85_0_33_F_39| () Bool false)
(define-fun |main$tmp_guard1#5| () (_ BitVec 8) #b00000000)
(define-fun |memory_model::choice_rf_0_95_0_33_F_40| () Bool false)
(define-fun |memory_model::choice_rf_0_95_0_92_F_41| () Bool true)
(define-fun |memory_model::choice_rf_0_96_0_33_F_42| () Bool false)
(define-fun |memory_model::choice_rf_0_96_0_92_F_43| () Bool true)
(define-fun |memory_model::choice_rf_0_73_0_38_F_44| () Bool false)
(define-fun |memory_model::choice_rf_0_73_2_32_F_45| () Bool false)
(define-fun |y#9$wclk$8| () (_ BitVec 8) #b11110100)
(define-fun |y#2$rclk$8| () (_ BitVec 8) #b11111100)
(define-fun |memory_model::choice_rf_0_73_3_16_F_46| () Bool false)
(define-fun |y#13$wclk$8| () (_ BitVec 8) #b11101100)
(define-fun |memory_model::choice_rf_0_73_3_34_F_47| () Bool true)
(define-fun |y#16$wclk$8| () (_ BitVec 8) #b11110110)
(define-fun |memory_model::choice_rf_2_21_0_38_F_48| () Bool false)
(define-fun |y#1$wclk$8| () (_ BitVec 8) #b01001100)
(define-fun |y#6$rclk$8| () (_ BitVec 8) #b11110100)
(define-fun |memory_model::choice_rf_2_21_0_84_F_49| () Bool false)
(define-fun |y#5$wclk$8| () (_ BitVec 8) #b11111100)
(define-fun |memory_model::choice_rf_2_21_3_16_F_50| () Bool true)
(define-fun |memory_model::choice_rf_2_21_3_34_F_51| () Bool false)
(define-fun |memory_model::choice_rf_3_6_0_38_F_52| () Bool true)
(define-fun |y#10$rclk$8| () (_ BitVec 8) #b11101100)
(define-fun |memory_model::choice_rf_3_6_0_84_F_53| () Bool false)
(define-fun |memory_model::choice_rf_3_6_2_32_F_54| () Bool false)
(define-fun |memory_model::choice_rf_3_23_0_38_F_55| () Bool false)
(define-fun |y#14$rclk$8| () (_ BitVec 8) #b11110110)
(define-fun |memory_model::choice_rf_3_23_0_84_F_56| () Bool false)
(define-fun |memory_model::choice_rf_3_23_2_32_F_57| () Bool true)
(define-fun |memory_model::choice_rf_3_23_3_16_F_58| () Bool false)
(define-fun |memory_model::choice_rf_0_78_0_41_F_59| () Bool true)
(define-fun |memory_model::choice_rf_2_8_0_41_F_60| () Bool true)
(define-fun |y$r_buff0_thd0#1$wclk$8| () (_ BitVec 8) #b01001111)
(define-fun |y$r_buff0_thd0#11$rclk$8| () (_ BitVec 8) #b11110011)
(define-fun |memory_model::choice_rf_2_8_0_81_F_61| () Bool false)
(define-fun |y$r_buff0_thd0#10$wclk$8| () (_ BitVec 8) #b11111100)
(define-fun |memory_model::choice_rf_2_5_0_42_F_62| () Bool true)
(define-fun |y$r_buff0_thd1#1$wclk$8| () (_ BitVec 8) #b01010000)
(define-fun |y$r_buff0_thd1#2$rclk$8| () (_ BitVec 8) #b11110011)
(define-fun |memory_model::choice_rf_2_4_0_43_F_63| () Bool true)
(define-fun |y$r_buff0_thd2#1$wclk$8| () (_ BitVec 8) #b01010001)
(define-fun |y$r_buff0_thd2#2$rclk$8| () (_ BitVec 8) #b11110011)
(define-fun |memory_model::choice_rf_2_26_0_43_F_64| () Bool false)
(define-fun |y$r_buff0_thd2#6$rclk$8| () (_ BitVec 8) #b11110100)
(define-fun |memory_model::choice_rf_2_26_2_12_F_65| () Bool true)
(define-fun |memory_model::choice_rf_2_6_0_44_F_66| () Bool false)
(define-fun |y$r_buff0_thd3#1$wclk$8| () (_ BitVec 8) #b01010010)
(define-fun |y$r_buff0_thd3#2$rclk$8| () (_ BitVec 8) #b11110011)
(define-fun |memory_model::choice_rf_2_6_3_20_F_67| () Bool true)
(define-fun |y$r_buff0_thd3#6$wclk$8| () (_ BitVec 8) #b11101100)
(define-fun |memory_model::choice_rf_2_6_3_31_F_68| () Bool false)
(define-fun |y$r_buff0_thd3#9$wclk$8| () (_ BitVec 8) #b11110110)
(define-fun |memory_model::choice_rf_3_3_0_44_F_69| () Bool true)
(define-fun |y$r_buff0_thd3#4$rclk$8| () (_ BitVec 8) #b11101100)
(define-fun |memory_model::choice_rf_3_27_0_44_F_70| () Bool false)
(define-fun |y$r_buff0_thd3#7$rclk$8| () (_ BitVec 8) #b11110110)
(define-fun |memory_model::choice_rf_3_27_3_20_F_71| () Bool true)
(define-fun |memory_model::choice_rf_0_77_0_45_F_72| () Bool false)
(define-fun |memory_model::choice_rf_0_77_2_15_F_73| () Bool true)
(define-fun |y$r_buff1_thd0#11$wclk$8| () (_ BitVec 8) #b11110011)
(define-fun |y$r_buff1_thd0#2$rclk$8| () (_ BitVec 8) #b11111100)
(define-fun |memory_model::choice_rf_2_7_0_45_F_74| () Bool false)
(define-fun |y$r_buff1_thd0#1$wclk$8| () (_ BitVec 8) #b01010011)
(define-fun |y$r_buff1_thd0#10$rclk$8| () (_ BitVec 8) #b11110011)
(define-fun |memory_model::choice_rf_2_7_0_80_F_75| () Bool false)
(define-fun |y$r_buff1_thd0#8$wclk$8| () (_ BitVec 8) #b11111100)
(define-fun |memory_model::choice_rf_2_3_0_46_F_76| () Bool false)
(define-fun |y$r_buff1_thd1#1$wclk$8| () (_ BitVec 8) #b01010100)
(define-fun |y$r_buff1_thd1#3$rclk$8| () (_ BitVec 8) #b11110011)
(define-fun |memory_model::choice_rf_2_2_0_47_F_77| () Bool false)
(define-fun |y$r_buff1_thd2#1$wclk$8| () (_ BitVec 8) #b01010101)
(define-fun |y$r_buff1_thd2#3$rclk$8| () (_ BitVec 8) #b11110011)
(define-fun |memory_model::choice_rf_2_23_0_47_F_78| () Bool false)
(define-fun |y$r_buff1_thd2#5$rclk$8| () (_ BitVec 8) #b11110100)
(define-fun |memory_model::choice_rf_2_23_2_13_F_79| () Bool true)
(define-fun |memory_model::choice_rf_2_9_0_48_F_80| () Bool false)
(define-fun |y$r_buff1_thd3#1$wclk$8| () (_ BitVec 8) #b01010110)
(define-fun |y$r_buff1_thd3#3$rclk$8| () (_ BitVec 8) #b11110011)
(define-fun |memory_model::choice_rf_2_9_3_19_F_81| () Bool false)
(define-fun |y$r_buff1_thd3#7$wclk$8| () (_ BitVec 8) #b11101100)
(define-fun |memory_model::choice_rf_2_9_3_30_F_82| () Bool false)
(define-fun |y$r_buff1_thd3#10$wclk$8| () (_ BitVec 8) #b11110110)
(define-fun |memory_model::choice_rf_3_4_0_48_F_83| () Bool true)
(define-fun |y$r_buff1_thd3#5$rclk$8| () (_ BitVec 8) #b11101100)
(define-fun |memory_model::choice_rf_3_4_2_16_F_84| () Bool false)
(define-fun |y$r_buff1_thd3#4$wclk$8| () (_ BitVec 8) #b11110011)
(define-fun |memory_model::choice_rf_3_28_0_48_F_85| () Bool false)
(define-fun |y$r_buff1_thd3#8$rclk$8| () (_ BitVec 8) #b11110110)
(define-fun |memory_model::choice_rf_3_28_2_16_F_86| () Bool true)
(define-fun |memory_model::choice_rf_3_28_3_19_F_87| () Bool false)
(define-fun |memory_model::choice_rf_0_76_0_51_F_88| () Bool false)
(define-fun |memory_model::choice_rf_0_76_2_19_F_89| () Bool true)
(define-fun |y$w_buff0#6$wclk$8| () (_ BitVec 8) #b11110011)
(define-fun |y$w_buff0#2$rclk$8| () (_ BitVec 8) #b11111100)
(define-fun |memory_model::choice_rf_0_76_3_12_F_90| () Bool false)
(define-fun |y$w_buff0#11$wclk$8| () (_ BitVec 8) #b11101100)
(define-fun |memory_model::choice_rf_2_11_0_51_F_91| () Bool false)
(define-fun |y$w_buff0#1$wclk$8| () (_ BitVec 8) #b01011001)
(define-fun |y$w_buff0#4$rclk$8| () (_ BitVec 8) #b11110011)
(define-fun |memory_model::choice_rf_2_11_3_12_F_92| () Bool true)
(define-fun |memory_model::choice_rf_2_25_0_51_F_93| () Bool false)
(define-fun |y$w_buff0#7$rclk$8| () (_ BitVec 8) #b11110100)
(define-fun |memory_model::choice_rf_2_25_2_19_F_94| () Bool true)
(define-fun |memory_model::choice_rf_2_25_3_12_F_95| () Bool false)
(define-fun |memory_model::choice_rf_3_2_0_51_F_96| () Bool true)
(define-fun |y$w_buff0#9$rclk$8| () (_ BitVec 8) #b11101100)
(define-fun |memory_model::choice_rf_3_2_2_19_F_97| () Bool false)
(define-fun |memory_model::choice_rf_3_26_0_51_F_98| () Bool false)
(define-fun |y$w_buff0#12$rclk$8| () (_ BitVec 8) #b11110110)
(define-fun |memory_model::choice_rf_3_26_2_19_F_99| () Bool true)
(define-fun |memory_model::choice_rf_3_26_3_12_F_100| () Bool false)
(define-fun |memory_model::choice_rf_0_79_0_52_F_101| () Bool false)
(define-fun |memory_model::choice_rf_0_79_2_17_F_102| () Bool false)
(define-fun |y$w_buff0_used#13$wclk$8| () (_ BitVec 8) #b11110011)
(define-fun |y$w_buff0_used#2$rclk$8| () (_ BitVec 8) #b11111100)
(define-fun |memory_model::choice_rf_0_79_2_31_F_103| () Bool false)
(define-fun |y$w_buff0_used#22$wclk$8| () (_ BitVec 8) #b11110100)
(define-fun |memory_model::choice_rf_0_79_3_18_F_104| () Bool false)
(define-fun |y$w_buff0_used#25$wclk$8| () (_ BitVec 8) #b11101100)
(define-fun |memory_model::choice_rf_0_79_3_33_F_105| () Bool true)
(define-fun |y$w_buff0_used#28$wclk$8| () (_ BitVec 8) #b11110110)
(define-fun |memory_model::choice_rf_2_10_0_52_F_106| () Bool false)
(define-fun |y$w_buff0_used#1$wclk$8| () (_ BitVec 8) #b01101010)
(define-fun |y$w_buff0_used#11$rclk$8| () (_ BitVec 8) #b11110011)
(define-fun |memory_model::choice_rf_2_10_0_83_F_107| () Bool false)
(define-fun |y$w_buff0_used#10$wclk$8| () (_ BitVec 8) #b11111100)
(define-fun |memory_model::choice_rf_2_10_3_18_F_108| () Bool true)
(define-fun |memory_model::choice_rf_2_10_3_33_F_109| () Bool false)
(define-fun |memory_model::choice_rf_2_27_0_52_F_110| () Bool false)
(define-fun |y$w_buff0_used#14$rclk$8| () (_ BitVec 8) #b11110100)
(define-fun |memory_model::choice_rf_2_27_0_83_F_111| () Bool false)
(define-fun |memory_model::choice_rf_2_27_2_17_F_112| () Bool true)
(define-fun |memory_model::choice_rf_2_27_3_18_F_113| () Bool false)
(define-fun |memory_model::choice_rf_2_27_3_33_F_114| () Bool false)
(define-fun |memory_model::choice_rf_3_5_0_52_F_115| () Bool true)
(define-fun |y$w_buff0_used#23$rclk$8| () (_ BitVec 8) #b11101100)
(define-fun |memory_model::choice_rf_3_5_0_83_F_116| () Bool false)
(define-fun |memory_model::choice_rf_3_5_2_17_F_117| () Bool false)
(define-fun |memory_model::choice_rf_3_5_2_31_F_118| () Bool false)
(define-fun |memory_model::choice_rf_3_29_0_52_F_119| () Bool false)
(define-fun |y$w_buff0_used#26$rclk$8| () (_ BitVec 8) #b11110110)
(define-fun |memory_model::choice_rf_3_29_0_83_F_120| () Bool false)
(define-fun |memory_model::choice_rf_3_29_2_17_F_121| () Bool false)
(define-fun |memory_model::choice_rf_3_29_2_31_F_122| () Bool true)
(define-fun |memory_model::choice_rf_3_29_3_18_F_123| () Bool false)
(define-fun |memory_model::choice_rf_0_74_0_53_F_124| () Bool false)
(define-fun |memory_model::choice_rf_0_74_2_20_F_125| () Bool true)
(define-fun |y$w_buff1#4$wclk$8| () (_ BitVec 8) #b11110011)
(define-fun |y$w_buff1#2$rclk$8| () (_ BitVec 8) #b11111100)
(define-fun |memory_model::choice_rf_0_74_3_17_F_126| () Bool false)
(define-fun |y$w_buff1#9$wclk$8| () (_ BitVec 8) #b11101100)
(define-fun |memory_model::choice_rf_2_22_0_53_F_127| () Bool false)
(define-fun |y$w_buff1#1$wclk$8| () (_ BitVec 8) #b01101011)
(define-fun |y$w_buff1#5$rclk$8| () (_ BitVec 8) #b11110100)
(define-fun |memory_model::choice_rf_2_22_2_20_F_128| () Bool true)
(define-fun |memory_model::choice_rf_2_22_3_17_F_129| () Bool false)
(define-fun |memory_model::choice_rf_3_0_0_53_F_130| () Bool true)
(define-fun |y$w_buff1#7$rclk$8| () (_ BitVec 8) #b11101100)
(define-fun |memory_model::choice_rf_3_0_2_20_F_131| () Bool false)
(define-fun |memory_model::choice_rf_3_24_0_53_F_132| () Bool false)
(define-fun |y$w_buff1#10$rclk$8| () (_ BitVec 8) #b11110110)
(define-fun |memory_model::choice_rf_3_24_2_20_F_133| () Bool true)
(define-fun |memory_model::choice_rf_3_24_3_17_F_134| () Bool false)
(define-fun |memory_model::choice_rf_0_75_0_54_F_135| () Bool false)
(define-fun |memory_model::choice_rf_0_75_2_18_F_136| () Bool false)
(define-fun |y$w_buff1_used#9$wclk$8| () (_ BitVec 8) #b11110011)
(define-fun |y$w_buff1_used#2$rclk$8| () (_ BitVec 8) #b11111100)
(define-fun |memory_model::choice_rf_0_75_2_30_F_137| () Bool false)
(define-fun |y$w_buff1_used#16$wclk$8| () (_ BitVec 8) #b11110100)
(define-fun |memory_model::choice_rf_0_75_3_13_F_138| () Bool false)
(define-fun |y$w_buff1_used#19$wclk$8| () (_ BitVec 8) #b11101100)
(define-fun |memory_model::choice_rf_0_75_3_32_F_139| () Bool true)
(define-fun |y$w_buff1_used#22$wclk$8| () (_ BitVec 8) #b11110110)
(define-fun |memory_model::choice_rf_2_24_0_54_F_140| () Bool false)
(define-fun |y$w_buff1_used#1$wclk$8| () (_ BitVec 8) #b01101101)
(define-fun |y$w_buff1_used#10$rclk$8| () (_ BitVec 8) #b11110100)
(define-fun |memory_model::choice_rf_2_24_0_82_F_141| () Bool false)
(define-fun |y$w_buff1_used#8$wclk$8| () (_ BitVec 8) #b11111100)
(define-fun |memory_model::choice_rf_2_24_2_18_F_142| () Bool true)
(define-fun |memory_model::choice_rf_2_24_3_13_F_143| () Bool false)
(define-fun |memory_model::choice_rf_2_24_3_32_F_144| () Bool false)
(define-fun |memory_model::choice_rf_3_1_0_54_F_145| () Bool true)
(define-fun |y$w_buff1_used#17$rclk$8| () (_ BitVec 8) #b11101100)
(define-fun |memory_model::choice_rf_3_1_0_82_F_146| () Bool false)
(define-fun |memory_model::choice_rf_3_1_2_18_F_147| () Bool false)
(define-fun |memory_model::choice_rf_3_1_2_30_F_148| () Bool false)
(define-fun |memory_model::choice_rf_3_25_0_54_F_149| () Bool false)
(define-fun |y$w_buff1_used#20$rclk$8| () (_ BitVec 8) #b11110110)
(define-fun |memory_model::choice_rf_3_25_0_82_F_150| () Bool false)
(define-fun |memory_model::choice_rf_3_25_2_18_F_151| () Bool false)
(define-fun |memory_model::choice_rf_3_25_2_30_F_152| () Bool true)
(define-fun |memory_model::choice_rf_3_25_3_13_F_153| () Bool false)
(define-fun |memory_model::choice_rf_1_0_0_55_F_154| () Bool false)
(define-fun |z#1$wclk$8| () (_ BitVec 8) #b01110010)
(define-fun |z#2$rclk$8| () (_ BitVec 8) #b11101111)
(define-fun |memory_model::choice_rf_1_0_3_22_F_155| () Bool true)
(define-fun |z#4$wclk$8| () (_ BitVec 8) #b11101110)
(define-fun |memory_model::choice_rf_0_91_0_35_F_156| () Bool false)
(define-fun |memory_model::choice_rf_0_91_3_10_F_157| () Bool false)
(define-fun |weak$$choice1#8$wclk$8| () (_ BitVec 8) #b11101100)
(define-fun |weak$$choice1#3$rclk$8| () (_ BitVec 8) #b11111101)
(define-fun __unbuffered_p2_EAX$read_delayed_var$object () (_ BitVec 32) #b00000000000000000000000000000001)
(define-fun |memory_model::choice_rf_0_89_0_2_F_158| () Bool true)
(define-fun |memory_model::choice_ws-ext_0_11_1_6_T_159| () Bool true)
(define-fun |memory_model::choice_ws-ext_0_11_2_36_T_160| () Bool true)
(define-fun |memory_model::choice_ws-ext_0_11_3_38_T_161| () Bool true)
(define-fun |memory_model::choice_ws-ext_1_6_2_36_T_162| () Bool false)
(define-fun |memory_model::choice_ws-ext_1_6_3_38_T_163| () Bool false)
(define-fun |memory_model::choice_ws-ext_2_36_3_38_T_164| () Bool false)
(define-fun |memory_model::choice_ws-ext_0_37_1_2_F_165| () Bool true)
(define-fun |memory_model::choice_ws-ext_0_12_1_4_F_166| () Bool true)
(define-fun |memory_model::choice_ws-ext_0_12_2_34_F_167| () Bool true)
(define-fun |memory_model::choice_ws-ext_0_12_3_36_F_168| () Bool true)
(define-fun |memory_model::choice_ws-ext_1_4_2_34_F_169| () Bool false)
(define-fun |memory_model::choice_ws-ext_1_4_3_36_F_170| () Bool true)
(define-fun |memory_model::choice_ws-ext_2_34_3_36_F_171| () Bool true)
(define-fun |__unbuffered_p0_EAX#1$wclk$8| () (_ BitVec 8) #b00100101)
(define-fun |memory_model::choice_ws-ext_0_13_1_1_F_172| () Bool true)
(define-fun |__unbuffered_p1_EAX#1$wclk$8| () (_ BitVec 8) #b00100110)
(define-fun |memory_model::choice_ws-ext_0_14_2_1_F_173| () Bool true)
(define-fun |__unbuffered_p2_EAX#1$wclk$8| () (_ BitVec 8) #b00101000)
(define-fun |memory_model::choice_ws-ext_0_15_3_7_F_174| () Bool true)
(define-fun |__unbuffered_p2_EAX#10$wclk$8| () (_ BitVec 8) #b11111101)
(define-fun |memory_model::choice_ws-ext_0_93_3_7_F_175| () Bool false)
(define-fun |__unbuffered_p2_EAX$read_delayed#1$wclk$8| () (_ BitVec 8) #b00110011)
(define-fun |memory_model::choice_ws-ext_0_26_3_21_F_176| () Bool true)
(define-fun |__unbuffered_p2_EAX$read_delayed_var#1$wclk$8| () (_ BitVec 8) #b00110101)
(define-fun |__unbuffered_p2_EAX$read_delayed_var#2$wclk$8| () (_ BitVec 8) #b11101100)
(define-fun |memory_model::choice_ws-ext_0_27_3_8_F_177| () Bool true)
(define-fun |memory_model::choice_ws-ext_0_38_2_32_F_178| () Bool true)
(define-fun |memory_model::choice_ws-ext_0_38_3_16_F_179| () Bool true)
(define-fun |memory_model::choice_ws-ext_0_38_3_34_F_180| () Bool true)
(define-fun |memory_model::choice_ws-ext_0_84_2_32_F_181| () Bool false)
(define-fun |memory_model::choice_ws-ext_0_84_3_16_F_182| () Bool false)
(define-fun |memory_model::choice_ws-ext_0_84_3_34_F_183| () Bool false)
(define-fun |memory_model::choice_ws-ext_2_32_3_16_F_184| () Bool false)
(define-fun |memory_model::choice_ws-ext_2_32_3_34_F_185| () Bool true)
(define-fun |y$flush_delayed#1$wclk$8| () (_ BitVec 8) #b01001101)
(define-fun |y$flush_delayed#3$wclk$8| () (_ BitVec 8) #b11101100)
(define-fun |memory_model::choice_ws-ext_0_39_3_14_F_186| () Bool true)
(define-fun |y$mem_tmp#1$wclk$8| () (_ BitVec 8) #b01001110)
(define-fun |y$mem_tmp#2$wclk$8| () (_ BitVec 8) #b11101100)
(define-fun |memory_model::choice_ws-ext_0_40_3_15_F_187| () Bool true)
(define-fun |y$r_buff0_thd2#5$wclk$8| () (_ BitVec 8) #b11110011)
(define-fun |memory_model::choice_ws-ext_0_43_2_12_F_188| () Bool true)
(define-fun |y$r_buff0_thd2#14$wclk$8| () (_ BitVec 8) #b11110100)
(define-fun |memory_model::choice_ws-ext_0_43_2_29_F_189| () Bool true)
(define-fun |memory_model::choice_ws-ext_0_44_3_20_F_190| () Bool true)
(define-fun |memory_model::choice_ws-ext_0_44_3_31_F_191| () Bool true)
(define-fun |memory_model::choice_ws-ext_0_45_2_15_F_192| () Bool true)
(define-fun |memory_model::choice_ws-ext_0_80_2_15_F_193| () Bool false)
(define-fun |y$r_buff1_thd1#4$wclk$8| () (_ BitVec 8) #b11110011)
(define-fun |memory_model::choice_ws-ext_0_46_2_14_F_194| () Bool true)
(define-fun |y$r_buff1_thd2#4$wclk$8| () (_ BitVec 8) #b11110011)
(define-fun |memory_model::choice_ws-ext_0_47_2_13_F_195| () Bool true)
(define-fun |y$r_buff1_thd2#11$wclk$8| () (_ BitVec 8) #b11110100)
(define-fun |memory_model::choice_ws-ext_0_47_2_28_F_196| () Bool true)
(define-fun |memory_model::choice_ws-ext_0_48_2_16_F_197| () Bool true)
(define-fun |memory_model::choice_ws-ext_0_48_3_19_F_198| () Bool true)
(define-fun |memory_model::choice_ws-ext_0_48_3_30_F_199| () Bool true)
(define-fun |memory_model::choice_ws-ext_2_16_3_19_F_200| () Bool false)
(define-fun |memory_model::choice_ws-ext_2_16_3_30_F_201| () Bool true)
(define-fun |memory_model::choice_ws-ext_0_51_2_19_F_202| () Bool true)
(define-fun |memory_model::choice_ws-ext_0_51_3_12_F_203| () Bool true)
(define-fun |memory_model::choice_ws-ext_2_19_3_12_F_204| () Bool false)
(define-fun |memory_model::choice_ws-ext_0_52_2_17_F_205| () Bool true)
(define-fun |memory_model::choice_ws-ext_0_52_2_31_F_206| () Bool true)
(define-fun |memory_model::choice_ws-ext_0_52_3_18_F_207| () Bool true)
(define-fun |memory_model::choice_ws-ext_0_52_3_33_F_208| () Bool true)
(define-fun |memory_model::choice_ws-ext_0_83_2_17_F_209| () Bool false)
(define-fun |memory_model::choice_ws-ext_0_83_2_31_F_210| () Bool false)
(define-fun |memory_model::choice_ws-ext_0_83_3_18_F_211| () Bool false)
(define-fun |memory_model::choice_ws-ext_0_83_3_33_F_212| () Bool false)
(define-fun |memory_model::choice_ws-ext_2_17_3_18_F_213| () Bool false)
(define-fun |memory_model::choice_ws-ext_2_17_3_33_F_214| () Bool true)
(define-fun |memory_model::choice_ws-ext_2_31_3_18_F_215| () Bool false)
(define-fun |memory_model::choice_ws-ext_2_31_3_33_F_216| () Bool true)
(define-fun |memory_model::choice_ws-ext_0_53_2_20_F_217| () Bool true)
(define-fun |memory_model::choice_ws-ext_0_53_3_17_F_218| () Bool true)
(define-fun |memory_model::choice_ws-ext_2_20_3_17_F_219| () Bool false)
(define-fun |memory_model::choice_ws-ext_0_54_2_18_F_220| () Bool true)
(define-fun |memory_model::choice_ws-ext_0_54_2_30_F_221| () Bool true)
(define-fun |memory_model::choice_ws-ext_0_54_3_13_F_222| () Bool true)
(define-fun |memory_model::choice_ws-ext_0_54_3_32_F_223| () Bool true)
(define-fun |memory_model::choice_ws-ext_0_82_2_18_F_224| () Bool false)
(define-fun |memory_model::choice_ws-ext_0_82_2_30_F_225| () Bool false)
(define-fun |memory_model::choice_ws-ext_0_82_3_13_F_226| () Bool false)
(define-fun |memory_model::choice_ws-ext_0_82_3_32_F_227| () Bool false)
(define-fun |memory_model::choice_ws-ext_2_18_3_13_F_228| () Bool false)
(define-fun |memory_model::choice_ws-ext_2_18_3_32_F_229| () Bool true)
(define-fun |memory_model::choice_ws-ext_2_30_3_13_F_230| () Bool false)
(define-fun |memory_model::choice_ws-ext_2_30_3_32_F_231| () Bool true)
(define-fun |memory_model::choice_ws-ext_0_55_3_22_F_232| () Bool true)
(define-fun |weak$$choice0#1$wclk$8| () (_ BitVec 8) #b00111100)
(define-fun |weak$$choice0#2$wclk$8| () (_ BitVec 8) #b11101100)
(define-fun |memory_model::choice_ws-ext_0_34_3_9_F_233| () Bool true)
(define-fun |weak$$choice1#1$wclk$8| () (_ BitVec 8) #b01001001)
(define-fun |memory_model::choice_ws-ext_0_35_3_10_F_234| () Bool true)
(define-fun |weak$$choice1#7$wclk$8| () (_ BitVec 8) #b11111101)
(define-fun |memory_model::choice_ws-ext_0_94_3_10_F_235| () Bool false)
(define-fun |weak$$choice2#1$wclk$8| () (_ BitVec 8) #b01001010)
(define-fun |weak$$choice2#2$wclk$8| () (_ BitVec 8) #b11101100)
(define-fun |memory_model::choice_ws-ext_0_36_3_11_F_236| () Bool true)
(define-fun t1$59$spwnclk$8 () (_ BitVec 8) #b01110111)
(define-fun t1$64$spwnclk$8 () (_ BitVec 8) #b10101100)
(define-fun t1$69$spwnclk$8 () (_ BitVec 8) #b11011011)
(define-fun |main::1::t2687!0@1$wclk$8| () (_ BitVec 8) #b00000000)
(define-fun |main::1::t2688!0@1$wclk$8| () (_ BitVec 8) #b00000001)
(define-fun __unbuffered_p2_EAX$read_delayed_var$object$wclk$8 () (_ BitVec 8) #b00000010)
(define-fun |__CPROVER_dead_object#1$wclk$8| () (_ BitVec 8) #b00000100)
(define-fun |__CPROVER_deallocated#1$wclk$8| () (_ BitVec 8) #b00000101)
(define-fun |__CPROVER_malloc_is_new_array#1$wclk$8| () (_ BitVec 8) #b00000110)
(define-fun |__CPROVER_malloc_object#1$wclk$8| () (_ BitVec 8) #b00000111)
(define-fun |__CPROVER_malloc_size#1$wclk$8| () (_ BitVec 8) #b00001011)
(define-fun |__CPROVER_memory_leak#1$wclk$8| () (_ BitVec 8) #b00010000)
(define-fun |__CPROVER_next_thread_id#1$wclk$8| () (_ BitVec 8) #b00100001)
(define-fun |__CPROVER_pipe_count#1$wclk$8| () (_ BitVec 8) #b00100010)
(define-fun |__unbuffered_p2_EAX$flush_delayed#1$wclk$8| () (_ BitVec 8) #b00101001)
(define-fun |__unbuffered_p2_EAX$mem_tmp#1$wclk$8| () (_ BitVec 8) #b00101010)
(define-fun |__unbuffered_p2_EAX$r_buff0_thd0#1$wclk$8| () (_ BitVec 8) #b00101011)
(define-fun |__unbuffered_p2_EAX$r_buff0_thd1#1$wclk$8| () (_ BitVec 8) #b00101100)
(define-fun |__unbuffered_p2_EAX$r_buff0_thd2#1$wclk$8| () (_ BitVec 8) #b00101101)
(define-fun |__unbuffered_p2_EAX$r_buff0_thd3#1$wclk$8| () (_ BitVec 8) #b00101110)
(define-fun |__unbuffered_p2_EAX$r_buff1_thd0#1$wclk$8| () (_ BitVec 8) #b00101111)
(define-fun |__unbuffered_p2_EAX$r_buff1_thd1#1$wclk$8| () (_ BitVec 8) #b00110000)
(define-fun |__unbuffered_p2_EAX$r_buff1_thd2#1$wclk$8| () (_ BitVec 8) #b00110001)
(define-fun |__unbuffered_p2_EAX$r_buff1_thd3#1$wclk$8| () (_ BitVec 8) #b00110010)
(define-fun |__unbuffered_p2_EAX$w_buff0#1$wclk$8| () (_ BitVec 8) #b00110110)
(define-fun |__unbuffered_p2_EAX$w_buff0_used#1$wclk$8| () (_ BitVec 8) #b00110111)
(define-fun |__unbuffered_p2_EAX$w_buff1#1$wclk$8| () (_ BitVec 8) #b00111000)
(define-fun |__unbuffered_p2_EAX$w_buff1_used#1$wclk$8| () (_ BitVec 8) #b00111001)
(define-fun |main$tmp_guard0#1$wclk$8| () (_ BitVec 8) #b00111010)
(define-fun |main$tmp_guard1#1$wclk$8| () (_ BitVec 8) #b00111011)
(define-fun |y$read_delayed#1$wclk$8| () (_ BitVec 8) #b01010111)
(define-fun |y$read_delayed_var#1$wclk$8| () (_ BitVec 8) #b01011000)
(define-fun |main::1::t2686!0@1#1$wclk$8| () (_ BitVec 8) #b01110011)
(define-fun |__CPROVER_next_thread_id#2$wclk$8| () (_ BitVec 8) #b01110101)
(define-fun |main::1::t2686!0@1#2$wclk$8| () (_ BitVec 8) #b01110110)
(define-fun |main::1::t2687!0@1#1$wclk$8| () (_ BitVec 8) #b10010110)
(define-fun |__CPROVER_next_thread_id#3$rclk$8| () (_ BitVec 8) #b10010111)
(define-fun |__CPROVER_next_thread_id#5$wclk$8| () (_ BitVec 8) #b10010111)
(define-fun |main::1::t2687!0@1#2$wclk$8| () (_ BitVec 8) #b10011011)
(define-fun |main::1::t2688!0@1#1$wclk$8| () (_ BitVec 8) #b10101101)
(define-fun |__CPROVER_next_thread_id#6$rclk$8| () (_ BitVec 8) #b10111001)
(define-fun |__CPROVER_next_thread_id#8$wclk$8| () (_ BitVec 8) #b10111001)
(define-fun |main::1::t2688!0@1#2$wclk$8| () (_ BitVec 8) #b11011010)
(define-fun |main$tmp_guard0#2$wclk$8| () (_ BitVec 8) #b11111001)
(define-fun |main$tmp_guard0#3$rclk$8| () (_ BitVec 8) #b11111010)
(define-fun |y$r_buff0_thd0#2$rclk$8| () (_ BitVec 8) #b11111100)
(define-fun |main$tmp_guard1#3$rclk$8| () (_ BitVec 8) #b11111101)
(define-fun |__unbuffered_p2_EAX$read_delayed_var$object#1$rclk$8| () (_ BitVec 8) #b11111101)
(define-fun |main$tmp_guard1#4$wclk$8| () (_ BitVec 8) #b11111101)
(define-fun |main$tmp_guard1#5$rclk$8| () (_ BitVec 8) #b11111110)
(define-fun |main$tmp_guard1#6$rclk$8| () (_ BitVec 8) #b11111111)
)

real	0m0.323s
user	0m0.306s
sys	0m0.017s
State: AC Run_time: 0.325336217880249